(set-info :smt-lib-version 2.6)
(set-logic QF_NIA)
(set-info :source |
Generated by: Cristina Borralleras, Daniel Larraz, Albert Oliveras, Enric Rodriguez-Carbonell, Albert Rubio
Generated on: 2017-04-27
Generator: VeryMax
Application: Termination proving
Target solver: barcelogic
|)
(set-info :license "https://creativecommons.org/licenses/by/4.0/")
(set-info :category "industrial")
(set-info :status unknown)
(declare-fun Nl1x0^01 () Int)
(declare-fun Nl1x1^01 () Int)
(declare-fun Nl1x2^01 () Int)
(declare-fun Nl1x3^01 () Int)
(declare-fun Nl1x4^01 () Int)
(declare-fun Nl1x5^01 () Int)
(declare-fun Nl1x6^01 () Int)
(declare-fun Nl1x7^01 () Int)
(declare-fun Nl20x0^01 () Int)
(declare-fun Nl20x1^01 () Int)
(declare-fun Nl20x2^01 () Int)
(declare-fun Nl20x3^01 () Int)
(declare-fun Nl20x4^01 () Int)
(declare-fun Nl20x5^01 () Int)
(declare-fun Nl20x6^01 () Int)
(declare-fun Nl20x7^01 () Int)
(declare-fun lam0n0 () Int)
(declare-fun lam0n1 () Int)
(declare-fun lam0n12 () Int)
(declare-fun Nl1CT1 () Int)
(declare-fun lam0n2 () Int)
(declare-fun lam0n3 () Int)
(declare-fun lam0n4 () Int)
(declare-fun lam0n5 () Int)
(declare-fun lam0n6 () Int)
(declare-fun lam0n7 () Int)
(declare-fun lam0n8 () Int)
(declare-fun lam0n9 () Int)
(declare-fun lam0n10 () Int)
(declare-fun lam0n11 () Int)
(declare-fun lam1n0 () Int)
(declare-fun lam1n1 () Int)
(declare-fun lam1n12 () Int)
(declare-fun Nl20CT1 () Int)
(declare-fun lam1n2 () Int)
(declare-fun lam1n3 () Int)
(declare-fun lam1n4 () Int)
(declare-fun lam1n5 () Int)
(declare-fun lam1n6 () Int)
(declare-fun lam1n7 () Int)
(declare-fun lam1n8 () Int)
(declare-fun lam1n9 () Int)
(declare-fun lam1n10 () Int)
(declare-fun lam1n11 () Int)
(declare-fun lam2n0 () Int)
(declare-fun lam2n1 () Int)
(declare-fun lam2n2 () Int)
(declare-fun lam2n15 () Int)
(declare-fun lam2n3 () Int)
(declare-fun lam2n4 () Int)
(declare-fun lam2n5 () Int)
(declare-fun lam2n6 () Int)
(declare-fun lam2n7 () Int)
(declare-fun lam2n8 () Int)
(declare-fun lam2n9 () Int)
(declare-fun lam2n10 () Int)
(declare-fun lam2n11 () Int)
(declare-fun lam2n12 () Int)
(declare-fun lam2n13 () Int)
(declare-fun lam2n14 () Int)
(declare-fun lam3n0 () Int)
(declare-fun lam3n1 () Int)
(declare-fun lam3n2 () Int)
(declare-fun lam3n15 () Int)
(declare-fun lam3n3 () Int)
(declare-fun lam3n4 () Int)
(declare-fun lam3n5 () Int)
(declare-fun lam3n6 () Int)
(declare-fun lam3n7 () Int)
(declare-fun lam3n8 () Int)
(declare-fun lam3n9 () Int)
(declare-fun lam3n10 () Int)
(declare-fun lam3n11 () Int)
(declare-fun lam3n12 () Int)
(declare-fun lam3n13 () Int)
(declare-fun lam3n14 () Int)
(declare-fun lam4n0 () Int)
(declare-fun lam4n1 () Int)
(declare-fun lam4n2 () Int)
(declare-fun lam4n10 () Int)
(declare-fun lam4n3 () Int)
(declare-fun lam4n4 () Int)
(declare-fun lam4n5 () Int)
(declare-fun lam4n6 () Int)
(declare-fun lam4n7 () Int)
(declare-fun lam4n8 () Int)
(declare-fun lam4n9 () Int)
(declare-fun lam5n0 () Int)
(declare-fun lam5n1 () Int)
(declare-fun lam5n2 () Int)
(declare-fun lam5n10 () Int)
(declare-fun lam5n3 () Int)
(declare-fun lam5n4 () Int)
(declare-fun lam5n5 () Int)
(declare-fun lam5n6 () Int)
(declare-fun lam5n7 () Int)
(declare-fun lam5n8 () Int)
(declare-fun lam5n9 () Int)
(declare-fun lam8n0 () Int)
(declare-fun lam8n1 () Int)
(declare-fun lam8n12 () Int)
(declare-fun RFN1_CT () Int)
(declare-fun RFN1_x0^0 () Int)
(declare-fun RFN1_x1^0 () Int)
(declare-fun RFN1_x2^0 () Int)
(declare-fun RFN1_x3^0 () Int)
(declare-fun RFN1_x4^0 () Int)
(declare-fun RFN1_x5^0 () Int)
(declare-fun RFN1_x6^0 () Int)
(declare-fun RFN1_x7^0 () Int)
(declare-fun lam8n2 () Int)
(declare-fun lam8n3 () Int)
(declare-fun lam8n4 () Int)
(declare-fun lam8n5 () Int)
(declare-fun lam8n6 () Int)
(declare-fun lam8n7 () Int)
(declare-fun lam8n8 () Int)
(declare-fun lam8n9 () Int)
(declare-fun lam8n10 () Int)
(declare-fun lam8n11 () Int)
(declare-fun lam11n0 () Int)
(declare-fun lam11n1 () Int)
(declare-fun lam11n2 () Int)
(declare-fun lam11n15 () Int)
(declare-fun lam11n3 () Int)
(declare-fun lam11n4 () Int)
(declare-fun lam11n5 () Int)
(declare-fun lam11n6 () Int)
(declare-fun lam11n7 () Int)
(declare-fun lam11n8 () Int)
(declare-fun lam11n9 () Int)
(declare-fun lam11n10 () Int)
(declare-fun lam11n11 () Int)
(declare-fun lam11n12 () Int)
(declare-fun lam11n13 () Int)
(declare-fun lam11n14 () Int)
(declare-fun lam14n0 () Int)
(declare-fun lam14n1 () Int)
(declare-fun lam14n2 () Int)
(declare-fun lam14n10 () Int)
(declare-fun lam14n3 () Int)
(declare-fun lam14n4 () Int)
(declare-fun lam14n5 () Int)
(declare-fun lam14n6 () Int)
(declare-fun lam14n7 () Int)
(declare-fun lam14n8 () Int)
(declare-fun lam14n9 () Int)
(declare-fun lam12n0 () Int)
(declare-fun lam12n1 () Int)
(declare-fun lam12n2 () Int)
(declare-fun lam12n10 () Int)
(declare-fun lam12n3 () Int)
(declare-fun lam12n4 () Int)
(declare-fun lam12n5 () Int)
(declare-fun lam12n6 () Int)
(declare-fun lam12n7 () Int)
(declare-fun lam12n8 () Int)
(declare-fun lam12n9 () Int)
(declare-fun lam13n0 () Int)
(declare-fun lam13n1 () Int)
(declare-fun lam13n2 () Int)
(declare-fun lam13n10 () Int)
(declare-fun lam13n3 () Int)
(declare-fun lam13n4 () Int)
(declare-fun lam13n5 () Int)
(declare-fun lam13n6 () Int)
(declare-fun lam13n7 () Int)
(declare-fun lam13n8 () Int)
(declare-fun lam13n9 () Int)
(declare-fun lam15n0 () Int)
(declare-fun lam15n1 () Int)
(declare-fun lam15n2 () Int)
(declare-fun lam15n10 () Int)
(declare-fun lam15n3 () Int)
(declare-fun lam15n4 () Int)
(declare-fun lam15n5 () Int)
(declare-fun lam15n6 () Int)
(declare-fun lam15n7 () Int)
(declare-fun lam15n8 () Int)
(declare-fun lam15n9 () Int)
(assert ( and ( <= ( - 5552 ) Nl1x0^01 ) ( <= Nl1x0^01 5552 ) ( <= ( - 5552 ) Nl1x1^01 ) ( <= Nl1x1^01 5552 ) ( <= ( - 5552 ) Nl1x2^01 ) ( <= Nl1x2^01 5552 ) ( <= ( - 5552 ) Nl1x3^01 ) ( <= Nl1x3^01 5552 ) ( <= ( - 5552 ) Nl1x4^01 ) ( <= Nl1x4^01 5552 ) ( <= ( - 5552 ) Nl1x5^01 ) ( <= Nl1x5^01 5552 ) ( <= ( - 5552 ) Nl1x6^01 ) ( <= Nl1x6^01 5552 ) ( <= ( - 5552 ) Nl1x7^01 ) ( <= Nl1x7^01 5552 ) ( <= ( - 5552 ) Nl20x0^01 ) ( <= Nl20x0^01 5552 ) ( <= ( - 5552 ) Nl20x1^01 ) ( <= Nl20x1^01 5552 ) ( <= ( - 5552 ) Nl20x2^01 ) ( <= Nl20x2^01 5552 ) ( <= ( - 5552 ) Nl20x3^01 ) ( <= Nl20x3^01 5552 ) ( <= ( - 5552 ) Nl20x4^01 ) ( <= Nl20x4^01 5552 ) ( <= ( - 5552 ) Nl20x5^01 ) ( <= Nl20x5^01 5552 ) ( <= ( - 5552 ) Nl20x6^01 ) ( <= Nl20x6^01 5552 ) ( <= ( - 5552 ) Nl20x7^01 ) ( <= Nl20x7^01 5552 ) ))
(assert ( or ( and ( >= lam0n0 0 ) ( >= lam0n1 0 ) ( >= lam0n12 0 ) ( > ( + ( * 5552 lam0n0 ) ( * 199 lam0n1 ) ( * Nl1CT1 lam0n12 ) ( - 1 ) ) 0 ) ( = ( + ( * 1 lam0n2 ) ( * Nl1x0^01 lam0n12 ) ) 0 ) ( = ( + ( * 1 lam0n3 ) ( * Nl1x1^01 lam0n12 ) ) 0 ) ( = ( + ( * 1 lam0n4 ) ( * Nl1x2^01 lam0n12 ) ) 0 ) ( = ( + ( * 1 lam0n5 ) ( * Nl1x3^01 lam0n12 ) ) 0 ) ( = ( + ( * ( - 1 ) lam0n1 ) ( * 1 lam0n6 ) ( * Nl1x4^01 lam0n12 ) ) 0 ) ( = ( * Nl1x5^01 lam0n12 ) 0 ) ( = ( * Nl1x6^01 lam0n12 ) 0 ) ( = ( * Nl1x7^01 lam0n12 ) 0 ) ( = ( + ( * ( - 1 ) lam0n2 ) ( * 1 lam0n7 ) ) 0 ) ( = ( + ( * ( - 1 ) lam0n3 ) ( * 1 lam0n8 ) ) 0 ) ( = ( + ( * ( - 1 ) lam0n4 ) ( * 1 lam0n9 ) ) 0 ) ( = ( + ( * ( - 1 ) lam0n5 ) ( * 1 lam0n10 ) ) 0 ) ( = ( + ( * ( - 1 ) lam0n0 ) ( * ( - 1 ) lam0n6 ) ( * 1 lam0n11 ) ) 0 ) ( = ( * ( - 1 ) lam0n7 ) 0 ) ( = ( * ( - 1 ) lam0n8 ) 0 ) ( = ( * ( - 1 ) lam0n9 ) 0 ) ( = ( * ( - 1 ) lam0n10 ) 0 ) ( = ( * ( - 1 ) lam0n11 ) 0 ) ) ( and ( >= lam1n0 0 ) ( >= lam1n1 0 ) ( >= lam1n12 0 ) ( > ( + ( * 5552 lam1n0 ) ( * 199 lam1n1 ) ( * Nl1CT1 lam1n12 ) ( - 1 ( + ( + ( + ( + ( + ( + ( + ( + Nl20CT1 ( * Nl20x0^01 0 ) ) ( * Nl20x1^01 0 ) ) ( * Nl20x2^01 0 ) ) ( * Nl20x3^01 0 ) ) ( * Nl20x4^01 0 ) ) ( * Nl20x5^01 ( - 5552 ) ) ) ( * Nl20x6^01 347 ) ) ( * Nl20x7^01 0 ) ) ) ) 0 ) ( = ( + ( * 1 lam1n2 ) ( * Nl1x0^01 lam1n12 ) ) 0 ) ( = ( + ( * 1 lam1n3 ) ( * Nl1x1^01 lam1n12 ) ) 0 ) ( = ( + ( * 1 lam1n4 ) ( * Nl1x2^01 lam1n12 ) ) 0 ) ( = ( + ( * 1 lam1n5 ) ( * Nl1x3^01 lam1n12 ) ) 0 ) ( = ( + ( * ( - 1 ) lam1n1 ) ( * 1 lam1n6 ) ( * Nl1x4^01 lam1n12 ) ) 0 ) ( = ( * Nl1x5^01 lam1n12 ) 0 ) ( = ( * Nl1x6^01 lam1n12 ) 0 ) ( = ( * Nl1x7^01 lam1n12 ) 0 ) ( = ( + ( * ( - 1 ) lam1n2 ) ( * 1 lam1n7 ) ) 0 ) ( = ( + ( * ( - 1 ) lam1n3 ) ( * 1 lam1n8 ) ) 0 ) ( = ( + ( * ( - 1 ) lam1n4 ) ( * 1 lam1n9 ) ) 0 ) ( = ( + ( * ( - 1 ) lam1n5 ) ( * 1 lam1n10 ) ) 0 ) ( = ( + ( * ( - 1 ) lam1n0 ) ( * ( - 1 ) lam1n6 ) ( * 1 lam1n11 ) ) 0 ) ( = ( + ( * ( - 1 ) lam1n7 ) ( - ( + 0 ( * Nl20x0^01 1 ) ) ) ) 0 ) ( = ( + ( * ( - 1 ) lam1n8 ) ( - ( + 0 ( * Nl20x1^01 1 ) ) ) ) 0 ) ( = ( + ( * ( - 1 ) lam1n9 ) ( - ( + 0 ( * Nl20x2^01 1 ) ) ) ) 0 ) ( = ( + ( * ( - 1 ) lam1n10 ) ( - ( + 0 ( * Nl20x3^01 1 ) ) ) ) 0 ) ( = ( + ( * ( - 1 ) lam1n11 ) ( - ( + ( + 0 ( * Nl20x4^01 1 ) ) ( * Nl20x5^01 1 ) ) ) ) 0 ) ( = ( - ( + 0 ( * Nl20x7^01 1 ) ) ) 0 ) ) ))
(assert ( or ( and ( >= lam2n0 0 ) ( >= lam2n1 0 ) ( >= lam2n2 0 ) ( >= lam2n15 0 ) ( > ( + ( * ( - 1 ) lam2n2 ) ( * Nl20CT1 lam2n15 ) ( - 1 ) ) 0 ) ( = ( + ( * 1 lam2n3 ) ( * Nl20x0^01 lam2n15 ) ) 0 ) ( = ( + ( * 1 lam2n4 ) ( * Nl20x1^01 lam2n15 ) ) 0 ) ( = ( + ( * 1 lam2n5 ) ( * Nl20x2^01 lam2n15 ) ) 0 ) ( = ( + ( * 1 lam2n6 ) ( * Nl20x3^01 lam2n15 ) ) 0 ) ( = ( + ( * 1 lam2n7 ) ( * Nl20x4^01 lam2n15 ) ) 0 ) ( = ( + ( * ( - 1 ) lam2n1 ) ( * 1 lam2n8 ) ( * Nl20x5^01 lam2n15 ) ) 0 ) ( = ( + ( * 1 lam2n9 ) ( * Nl20x6^01 lam2n15 ) ) 0 ) ( = ( * Nl20x7^01 lam2n15 ) 0 ) ( = ( * 1 lam2n10 ) 0 ) ( = ( * 1 lam2n11 ) 0 ) ( = ( * 1 lam2n12 ) 0 ) ( = ( * 1 lam2n13 ) 0 ) ( = ( * 1 lam2n14 ) 0 ) ( = ( + ( * ( - 1 ) lam2n3 ) ( * ( - 1 ) lam2n10 ) ) 0 ) ( = ( + ( * ( - 1 ) lam2n4 ) ( * ( - 1 ) lam2n11 ) ) 0 ) ( = ( + ( * ( - 1 ) lam2n5 ) ( * ( - 1 ) lam2n12 ) ) 0 ) ( = ( + ( * ( - 1 ) lam2n6 ) ( * ( - 1 ) lam2n13 ) ) 0 ) ( = ( * ( - 1 ) lam2n7 ) 0 ) ( = ( + ( * ( - 1 ) lam2n8 ) ( * ( - 1 ) lam2n14 ) ) 0 ) ( = ( + ( * 1 lam2n2 ) ( * ( - 1 ) lam2n9 ) ) 0 ) ) ( and ( >= lam3n0 0 ) ( >= lam3n1 0 ) ( >= lam3n2 0 ) ( >= lam3n15 0 ) ( > ( + ( * ( - 1 ) lam3n2 ) ( * Nl20CT1 lam3n15 ) ( - 1 ( + ( + ( + ( + ( + ( + ( + ( + Nl1CT1 ( * Nl1x0^01 0 ) ) ( * Nl1x1^01 0 ) ) ( * Nl1x2^01 0 ) ) ( * Nl1x3^01 0 ) ) ( * Nl1x4^01 0 ) ) ( * Nl1x5^01 0 ) ) ( * Nl1x6^01 0 ) ) ( * Nl1x7^01 0 ) ) ) ) 0 ) ( = ( + ( * 1 lam3n3 ) ( * Nl20x0^01 lam3n15 ) ) 0 ) ( = ( + ( * 1 lam3n4 ) ( * Nl20x1^01 lam3n15 ) ) 0 ) ( = ( + ( * 1 lam3n5 ) ( * Nl20x2^01 lam3n15 ) ) 0 ) ( = ( + ( * 1 lam3n6 ) ( * Nl20x3^01 lam3n15 ) ) 0 ) ( = ( + ( * 1 lam3n7 ) ( * Nl20x4^01 lam3n15 ) ) 0 ) ( = ( + ( * ( - 1 ) lam3n1 ) ( * 1 lam3n8 ) ( * Nl20x5^01 lam3n15 ) ) 0 ) ( = ( + ( * 1 lam3n9 ) ( * Nl20x6^01 lam3n15 ) ) 0 ) ( = ( * Nl20x7^01 lam3n15 ) 0 ) ( = ( + ( * 1 lam3n10 ) ( - ( + 0 ( * Nl1x0^01 1 ) ) ) ) 0 ) ( = ( - ( + 0 ( * Nl1x7^01 1 ) ) ) 0 ) ( = ( + ( * 1 lam3n11 ) ( - ( + 0 ( * Nl1x1^01 1 ) ) ) ) 0 ) ( = ( + ( * 1 lam3n12 ) ( - ( + 0 ( * Nl1x2^01 1 ) ) ) ) 0 ) ( = ( + ( * 1 lam3n13 ) ( - ( + 0 ( * Nl1x3^01 1 ) ) ) ) 0 ) ( = ( + ( * 1 lam3n14 ) ( - ( + 0 ( * Nl1x4^01 1 ) ) ) ) 0 ) ( = ( - ( + 0 ( * Nl1x5^01 1 ) ) ) 0 ) ( = ( - ( + 0 ( * Nl1x6^01 1 ) ) ) 0 ) ( = ( + ( * ( - 1 ) lam3n3 ) ( * ( - 1 ) lam3n10 ) ) 0 ) ( = ( + ( * ( - 1 ) lam3n4 ) ( * ( - 1 ) lam3n11 ) ) 0 ) ( = ( + ( * ( - 1 ) lam3n5 ) ( * ( - 1 ) lam3n12 ) ) 0 ) ( = ( + ( * ( - 1 ) lam3n6 ) ( * ( - 1 ) lam3n13 ) ) 0 ) ( = ( * ( - 1 ) lam3n7 ) 0 ) ( = ( + ( * ( - 1 ) lam3n8 ) ( * ( - 1 ) lam3n14 ) ) 0 ) ( = ( + ( * 1 lam3n2 ) ( * ( - 1 ) lam3n9 ) ) 0 ) ) ))
(assert ( or ( and ( >= lam4n0 0 ) ( >= lam4n1 0 ) ( >= lam4n2 0 ) ( >= lam4n10 0 ) ( > ( + ( * 2 lam4n2 ) ( * Nl20CT1 lam4n10 ) ( - 1 ) ) 0 ) ( = ( + ( * 1 lam4n3 ) ( * Nl20x0^01 lam4n10 ) ) 0 ) ( = ( + ( * 1 lam4n4 ) ( * Nl20x1^01 lam4n10 ) ) 0 ) ( = ( + ( * 1 lam4n5 ) ( * Nl20x2^01 lam4n10 ) ) 0 ) ( = ( + ( * 1 lam4n6 ) ( * Nl20x3^01 lam4n10 ) ) 0 ) ( = ( + ( * 1 lam4n7 ) ( * Nl20x4^01 lam4n10 ) ) 0 ) ( = ( + ( * ( - 1 ) lam4n1 ) ( * 1 lam4n8 ) ( * Nl20x5^01 lam4n10 ) ) 0 ) ( = ( + ( * 1 lam4n9 ) ( * Nl20x6^01 lam4n10 ) ) 0 ) ( = ( * Nl20x7^01 lam4n10 ) 0 ) ( = ( * ( - 1 ) lam4n3 ) 0 ) ( = ( * ( - 1 ) lam4n4 ) 0 ) ( = ( * ( - 1 ) lam4n5 ) 0 ) ( = ( * ( - 1 ) lam4n6 ) 0 ) ( = ( * ( - 1 ) lam4n7 ) 0 ) ( = ( * ( - 1 ) lam4n8 ) 0 ) ( = ( + ( * ( - 1 ) lam4n2 ) ( * ( - 1 ) lam4n9 ) ) 0 ) ) ( and ( >= lam5n0 0 ) ( >= lam5n1 0 ) ( >= lam5n2 0 ) ( >= lam5n10 0 ) ( > ( + ( * 2 lam5n2 ) ( * Nl20CT1 lam5n10 ) ( - 1 ( + ( + ( + ( + ( + ( + ( + ( + Nl20CT1 ( * Nl20x0^01 0 ) ) ( * Nl20x1^01 0 ) ) ( * Nl20x2^01 0 ) ) ( * Nl20x3^01 0 ) ) ( * Nl20x4^01 0 ) ) ( * Nl20x5^01 0 ) ) ( * Nl20x6^01 ( - 1 ) ) ) ( * Nl20x7^01 0 ) ) ) ) 0 ) ( = ( + ( * 1 lam5n3 ) ( * Nl20x0^01 lam5n10 ) ) 0 ) ( = ( + ( * 1 lam5n4 ) ( * Nl20x1^01 lam5n10 ) ) 0 ) ( = ( + ( * 1 lam5n5 ) ( * Nl20x2^01 lam5n10 ) ) 0 ) ( = ( + ( * 1 lam5n6 ) ( * Nl20x3^01 lam5n10 ) ) 0 ) ( = ( + ( * 1 lam5n7 ) ( * Nl20x4^01 lam5n10 ) ) 0 ) ( = ( + ( * ( - 1 ) lam5n1 ) ( * 1 lam5n8 ) ( * Nl20x5^01 lam5n10 ) ) 0 ) ( = ( + ( * 1 lam5n9 ) ( * Nl20x6^01 lam5n10 ) ) 0 ) ( = ( * Nl20x7^01 lam5n10 ) 0 ) ( = ( + ( * ( - 1 ) lam5n3 ) ( - ( + 0 ( * Nl20x0^01 1 ) ) ) ) 0 ) ( = ( + ( * ( - 1 ) lam5n4 ) ( - ( + 0 ( * Nl20x1^01 1 ) ) ) ) 0 ) ( = ( + ( * ( - 1 ) lam5n5 ) ( - ( + 0 ( * Nl20x2^01 1 ) ) ) ) 0 ) ( = ( + ( * ( - 1 ) lam5n6 ) ( - ( + 0 ( * Nl20x3^01 1 ) ) ) ) 0 ) ( = ( + ( * ( - 1 ) lam5n7 ) ( - ( + 0 ( * Nl20x4^01 1 ) ) ) ) 0 ) ( = ( + ( * ( - 1 ) lam5n8 ) ( - ( + 0 ( * Nl20x5^01 1 ) ) ) ) 0 ) ( = ( + ( * ( - 1 ) lam5n2 ) ( * ( - 1 ) lam5n9 ) ( - ( + 0 ( * Nl20x6^01 1 ) ) ) ) 0 ) ( = ( - ( + 0 ( * Nl20x7^01 1 ) ) ) 0 ) ) ))
(assert ( and ( or ( and ( >= lam0n0 0 ) ( >= lam0n1 0 ) ( >= lam0n12 0 ) ( > ( + ( * 5552 lam0n0 ) ( * 199 lam0n1 ) ( * Nl1CT1 lam0n12 ) ( - 1 ) ) 0 ) ( = ( + ( * 1 lam0n2 ) ( * Nl1x0^01 lam0n12 ) ) 0 ) ( = ( + ( * 1 lam0n3 ) ( * Nl1x1^01 lam0n12 ) ) 0 ) ( = ( + ( * 1 lam0n4 ) ( * Nl1x2^01 lam0n12 ) ) 0 ) ( = ( + ( * 1 lam0n5 ) ( * Nl1x3^01 lam0n12 ) ) 0 ) ( = ( + ( * ( - 1 ) lam0n1 ) ( * 1 lam0n6 ) ( * Nl1x4^01 lam0n12 ) ) 0 ) ( = ( * Nl1x5^01 lam0n12 ) 0 ) ( = ( * Nl1x6^01 lam0n12 ) 0 ) ( = ( * Nl1x7^01 lam0n12 ) 0 ) ( = ( + ( * ( - 1 ) lam0n2 ) ( * 1 lam0n7 ) ) 0 ) ( = ( + ( * ( - 1 ) lam0n3 ) ( * 1 lam0n8 ) ) 0 ) ( = ( + ( * ( - 1 ) lam0n4 ) ( * 1 lam0n9 ) ) 0 ) ( = ( + ( * ( - 1 ) lam0n5 ) ( * 1 lam0n10 ) ) 0 ) ( = ( + ( * ( - 1 ) lam0n0 ) ( * ( - 1 ) lam0n6 ) ( * 1 lam0n11 ) ) 0 ) ( = ( * ( - 1 ) lam0n7 ) 0 ) ( = ( * ( - 1 ) lam0n8 ) 0 ) ( = ( * ( - 1 ) lam0n9 ) 0 ) ( = ( * ( - 1 ) lam0n10 ) 0 ) ( = ( * ( - 1 ) lam0n11 ) 0 ) ) ( and ( >= lam8n0 0 ) ( >= lam8n1 0 ) ( >= lam8n12 0 ) ( > ( + ( * 5552 lam8n0 ) ( * 199 lam8n1 ) ( * Nl1CT1 lam8n12 ) ( - 1 ( - ( + ( + ( + ( + ( + ( + ( + ( + RFN1_CT ( * RFN1_x0^0 0 ) ) ( * RFN1_x1^0 0 ) ) ( * RFN1_x2^0 0 ) ) ( * RFN1_x3^0 0 ) ) ( * RFN1_x4^0 0 ) ) ( * RFN1_x5^0 ( - 5552 ) ) ) ( * RFN1_x6^0 347 ) ) ( * RFN1_x7^0 0 ) ) RFN1_CT ) ) ) 0 ) ( = ( + ( * 1 lam8n2 ) ( * Nl1x0^01 lam8n12 ) ( - ( - RFN1_x0^0 ) ) ) 0 ) ( = ( + ( * 1 lam8n3 ) ( * Nl1x1^01 lam8n12 ) ( - ( - RFN1_x1^0 ) ) ) 0 ) ( = ( + ( * 1 lam8n4 ) ( * Nl1x2^01 lam8n12 ) ( - ( - RFN1_x2^0 ) ) ) 0 ) ( = ( + ( * 1 lam8n5 ) ( * Nl1x3^01 lam8n12 ) ( - ( - RFN1_x3^0 ) ) ) 0 ) ( = ( + ( * ( - 1 ) lam8n1 ) ( * 1 lam8n6 ) ( * Nl1x4^01 lam8n12 ) ( - ( - RFN1_x4^0 ) ) ) 0 ) ( = ( + ( * Nl1x5^01 lam8n12 ) ( - ( - RFN1_x5^0 ) ) ) 0 ) ( = ( + ( * Nl1x6^01 lam8n12 ) ( - ( - RFN1_x6^0 ) ) ) 0 ) ( = ( + ( * Nl1x7^01 lam8n12 ) ( - ( - RFN1_x7^0 ) ) ) 0 ) ( = ( + ( * ( - 1 ) lam8n2 ) ( * 1 lam8n7 ) ) 0 ) ( = ( + ( * ( - 1 ) lam8n3 ) ( * 1 lam8n8 ) ) 0 ) ( = ( + ( * ( - 1 ) lam8n4 ) ( * 1 lam8n9 ) ) 0 ) ( = ( + ( * ( - 1 ) lam8n5 ) ( * 1 lam8n10 ) ) 0 ) ( = ( + ( * ( - 1 ) lam8n0 ) ( * ( - 1 ) lam8n6 ) ( * 1 lam8n11 ) ) 0 ) ( = ( + ( * ( - 1 ) lam8n7 ) ( - ( + 0 ( * RFN1_x0^0 1 ) ) ) ) 0 ) ( = ( + ( * ( - 1 ) lam8n8 ) ( - ( + 0 ( * RFN1_x1^0 1 ) ) ) ) 0 ) ( = ( + ( * ( - 1 ) lam8n9 ) ( - ( + 0 ( * RFN1_x2^0 1 ) ) ) ) 0 ) ( = ( + ( * ( - 1 ) lam8n10 ) ( - ( + 0 ( * RFN1_x3^0 1 ) ) ) ) 0 ) ( = ( + ( * ( - 1 ) lam8n11 ) ( - ( + ( + 0 ( * RFN1_x4^0 1 ) ) ( * RFN1_x5^0 1 ) ) ) ) 0 ) ( = ( - ( + 0 ( * RFN1_x7^0 1 ) ) ) 0 ) ) ) ( or ( and ( >= lam2n0 0 ) ( >= lam2n1 0 ) ( >= lam2n2 0 ) ( >= lam2n15 0 ) ( > ( + ( * ( - 1 ) lam2n2 ) ( * Nl20CT1 lam2n15 ) ( - 1 ) ) 0 ) ( = ( + ( * 1 lam2n3 ) ( * Nl20x0^01 lam2n15 ) ) 0 ) ( = ( + ( * 1 lam2n4 ) ( * Nl20x1^01 lam2n15 ) ) 0 ) ( = ( + ( * 1 lam2n5 ) ( * Nl20x2^01 lam2n15 ) ) 0 ) ( = ( + ( * 1 lam2n6 ) ( * Nl20x3^01 lam2n15 ) ) 0 ) ( = ( + ( * 1 lam2n7 ) ( * Nl20x4^01 lam2n15 ) ) 0 ) ( = ( + ( * ( - 1 ) lam2n1 ) ( * 1 lam2n8 ) ( * Nl20x5^01 lam2n15 ) ) 0 ) ( = ( + ( * 1 lam2n9 ) ( * Nl20x6^01 lam2n15 ) ) 0 ) ( = ( * Nl20x7^01 lam2n15 ) 0 ) ( = ( * 1 lam2n10 ) 0 ) ( = ( * 1 lam2n11 ) 0 ) ( = ( * 1 lam2n12 ) 0 ) ( = ( * 1 lam2n13 ) 0 ) ( = ( * 1 lam2n14 ) 0 ) ( = ( + ( * ( - 1 ) lam2n3 ) ( * ( - 1 ) lam2n10 ) ) 0 ) ( = ( + ( * ( - 1 ) lam2n4 ) ( * ( - 1 ) lam2n11 ) ) 0 ) ( = ( + ( * ( - 1 ) lam2n5 ) ( * ( - 1 ) lam2n12 ) ) 0 ) ( = ( + ( * ( - 1 ) lam2n6 ) ( * ( - 1 ) lam2n13 ) ) 0 ) ( = ( * ( - 1 ) lam2n7 ) 0 ) ( = ( + ( * ( - 1 ) lam2n8 ) ( * ( - 1 ) lam2n14 ) ) 0 ) ( = ( + ( * 1 lam2n2 ) ( * ( - 1 ) lam2n9 ) ) 0 ) ) ( and ( >= lam11n0 0 ) ( >= lam11n1 0 ) ( >= lam11n2 0 ) ( >= lam11n15 0 ) ( > ( + ( * ( - 1 ) lam11n2 ) ( * Nl20CT1 lam11n15 ) ( - 1 ( - ( + ( + ( + ( + ( + ( + ( + ( + RFN1_CT ( * RFN1_x0^0 0 ) ) ( * RFN1_x1^0 0 ) ) ( * RFN1_x2^0 0 ) ) ( * RFN1_x3^0 0 ) ) ( * RFN1_x4^0 0 ) ) ( * RFN1_x5^0 0 ) ) ( * RFN1_x6^0 0 ) ) ( * RFN1_x7^0 0 ) ) RFN1_CT ) ) ) 0 ) ( = ( + ( * 1 lam11n3 ) ( * Nl20x0^01 lam11n15 ) ( - ( - RFN1_x0^0 ) ) ) 0 ) ( = ( + ( * 1 lam11n4 ) ( * Nl20x1^01 lam11n15 ) ( - ( - RFN1_x1^0 ) ) ) 0 ) ( = ( + ( * 1 lam11n5 ) ( * Nl20x2^01 lam11n15 ) ( - ( - RFN1_x2^0 ) ) ) 0 ) ( = ( + ( * 1 lam11n6 ) ( * Nl20x3^01 lam11n15 ) ( - ( - RFN1_x3^0 ) ) ) 0 ) ( = ( + ( * 1 lam11n7 ) ( * Nl20x4^01 lam11n15 ) ( - ( - RFN1_x4^0 ) ) ) 0 ) ( = ( + ( * ( - 1 ) lam11n1 ) ( * 1 lam11n8 ) ( * Nl20x5^01 lam11n15 ) ( - ( - RFN1_x5^0 ) ) ) 0 ) ( = ( + ( * 1 lam11n9 ) ( * Nl20x6^01 lam11n15 ) ( - ( - RFN1_x6^0 ) ) ) 0 ) ( = ( + ( * Nl20x7^01 lam11n15 ) ( - ( - RFN1_x7^0 ) ) ) 0 ) ( = ( + ( * 1 lam11n10 ) ( - ( + 0 ( * RFN1_x0^0 1 ) ) ) ) 0 ) ( = ( - ( + 0 ( * RFN1_x7^0 1 ) ) ) 0 ) ( = ( + ( * 1 lam11n11 ) ( - ( + 0 ( * RFN1_x1^0 1 ) ) ) ) 0 ) ( = ( + ( * 1 lam11n12 ) ( - ( + 0 ( * RFN1_x2^0 1 ) ) ) ) 0 ) ( = ( + ( * 1 lam11n13 ) ( - ( + 0 ( * RFN1_x3^0 1 ) ) ) ) 0 ) ( = ( + ( * 1 lam11n14 ) ( - ( + 0 ( * RFN1_x4^0 1 ) ) ) ) 0 ) ( = ( - ( + 0 ( * RFN1_x5^0 1 ) ) ) 0 ) ( = ( - ( + 0 ( * RFN1_x6^0 1 ) ) ) 0 ) ( = ( + ( * ( - 1 ) lam11n3 ) ( * ( - 1 ) lam11n10 ) ) 0 ) ( = ( + ( * ( - 1 ) lam11n4 ) ( * ( - 1 ) lam11n11 ) ) 0 ) ( = ( + ( * ( - 1 ) lam11n5 ) ( * ( - 1 ) lam11n12 ) ) 0 ) ( = ( + ( * ( - 1 ) lam11n6 ) ( * ( - 1 ) lam11n13 ) ) 0 ) ( = ( * ( - 1 ) lam11n7 ) 0 ) ( = ( + ( * ( - 1 ) lam11n8 ) ( * ( - 1 ) lam11n14 ) ) 0 ) ( = ( + ( * 1 lam11n2 ) ( * ( - 1 ) lam11n9 ) ) 0 ) ) ) ( or ( and ( >= lam4n0 0 ) ( >= lam4n1 0 ) ( >= lam4n2 0 ) ( >= lam4n10 0 ) ( > ( + ( * 2 lam4n2 ) ( * Nl20CT1 lam4n10 ) ( - 1 ) ) 0 ) ( = ( + ( * 1 lam4n3 ) ( * Nl20x0^01 lam4n10 ) ) 0 ) ( = ( + ( * 1 lam4n4 ) ( * Nl20x1^01 lam4n10 ) ) 0 ) ( = ( + ( * 1 lam4n5 ) ( * Nl20x2^01 lam4n10 ) ) 0 ) ( = ( + ( * 1 lam4n6 ) ( * Nl20x3^01 lam4n10 ) ) 0 ) ( = ( + ( * 1 lam4n7 ) ( * Nl20x4^01 lam4n10 ) ) 0 ) ( = ( + ( * ( - 1 ) lam4n1 ) ( * 1 lam4n8 ) ( * Nl20x5^01 lam4n10 ) ) 0 ) ( = ( + ( * 1 lam4n9 ) ( * Nl20x6^01 lam4n10 ) ) 0 ) ( = ( * Nl20x7^01 lam4n10 ) 0 ) ( = ( * ( - 1 ) lam4n3 ) 0 ) ( = ( * ( - 1 ) lam4n4 ) 0 ) ( = ( * ( - 1 ) lam4n5 ) 0 ) ( = ( * ( - 1 ) lam4n6 ) 0 ) ( = ( * ( - 1 ) lam4n7 ) 0 ) ( = ( * ( - 1 ) lam4n8 ) 0 ) ( = ( + ( * ( - 1 ) lam4n2 ) ( * ( - 1 ) lam4n9 ) ) 0 ) ) ( and ( >= lam14n0 0 ) ( >= lam14n1 0 ) ( >= lam14n2 0 ) ( >= lam14n10 0 ) ( > ( + ( * 2 lam14n2 ) ( * Nl20CT1 lam14n10 ) ( - 1 ( - ( + ( + ( + ( + ( + ( + ( + ( + RFN1_CT ( * RFN1_x0^0 0 ) ) ( * RFN1_x1^0 0 ) ) ( * RFN1_x2^0 0 ) ) ( * RFN1_x3^0 0 ) ) ( * RFN1_x4^0 0 ) ) ( * RFN1_x5^0 0 ) ) ( * RFN1_x6^0 ( - 1 ) ) ) ( * RFN1_x7^0 0 ) ) RFN1_CT ) ) ) 0 ) ( = ( + ( * 1 lam14n3 ) ( * Nl20x0^01 lam14n10 ) ( - ( - RFN1_x0^0 ) ) ) 0 ) ( = ( + ( * 1 lam14n4 ) ( * Nl20x1^01 lam14n10 ) ( - ( - RFN1_x1^0 ) ) ) 0 ) ( = ( + ( * 1 lam14n5 ) ( * Nl20x2^01 lam14n10 ) ( - ( - RFN1_x2^0 ) ) ) 0 ) ( = ( + ( * 1 lam14n6 ) ( * Nl20x3^01 lam14n10 ) ( - ( - RFN1_x3^0 ) ) ) 0 ) ( = ( + ( * 1 lam14n7 ) ( * Nl20x4^01 lam14n10 ) ( - ( - RFN1_x4^0 ) ) ) 0 ) ( = ( + ( * ( - 1 ) lam14n1 ) ( * 1 lam14n8 ) ( * Nl20x5^01 lam14n10 ) ( - ( - RFN1_x5^0 ) ) ) 0 ) ( = ( + ( * 1 lam14n9 ) ( * Nl20x6^01 lam14n10 ) ( - ( - RFN1_x6^0 ) ) ) 0 ) ( = ( + ( * Nl20x7^01 lam14n10 ) ( - ( - RFN1_x7^0 ) ) ) 0 ) ( = ( + ( * ( - 1 ) lam14n3 ) ( - ( + 0 ( * RFN1_x0^0 1 ) ) ) ) 0 ) ( = ( + ( * ( - 1 ) lam14n4 ) ( - ( + 0 ( * RFN1_x1^0 1 ) ) ) ) 0 ) ( = ( + ( * ( - 1 ) lam14n5 ) ( - ( + 0 ( * RFN1_x2^0 1 ) ) ) ) 0 ) ( = ( + ( * ( - 1 ) lam14n6 ) ( - ( + 0 ( * RFN1_x3^0 1 ) ) ) ) 0 ) ( = ( + ( * ( - 1 ) lam14n7 ) ( - ( + 0 ( * RFN1_x4^0 1 ) ) ) ) 0 ) ( = ( + ( * ( - 1 ) lam14n8 ) ( - ( + 0 ( * RFN1_x5^0 1 ) ) ) ) 0 ) ( = ( + ( * ( - 1 ) lam14n2 ) ( * ( - 1 ) lam14n9 ) ( - ( + 0 ( * RFN1_x6^0 1 ) ) ) ) 0 ) ( = ( - ( + 0 ( * RFN1_x7^0 1 ) ) ) 0 ) ) ) ))
(assert ( and ( and ( and ( >= lam12n0 0 ) ( >= lam12n1 0 ) ( >= lam12n2 0 ) ( >= lam12n10 0 ) ( > ( + ( * 2 lam12n2 ) ( * Nl20CT1 lam12n10 ) ( - 1 ( - RFN1_CT ) ) ) 0 ) ( = ( + ( * 1 lam12n3 ) ( * Nl20x0^01 lam12n10 ) ( - ( - RFN1_x0^0 ) ) ) 0 ) ( = ( + ( * 1 lam12n4 ) ( * Nl20x1^01 lam12n10 ) ( - ( - RFN1_x1^0 ) ) ) 0 ) ( = ( + ( * 1 lam12n5 ) ( * Nl20x2^01 lam12n10 ) ( - ( - RFN1_x2^0 ) ) ) 0 ) ( = ( + ( * 1 lam12n6 ) ( * Nl20x3^01 lam12n10 ) ( - ( - RFN1_x3^0 ) ) ) 0 ) ( = ( + ( * 1 lam12n7 ) ( * Nl20x4^01 lam12n10 ) ( - ( - RFN1_x4^0 ) ) ) 0 ) ( = ( + ( * ( - 1 ) lam12n1 ) ( * 1 lam12n8 ) ( * Nl20x5^01 lam12n10 ) ( - ( - RFN1_x5^0 ) ) ) 0 ) ( = ( + ( * 1 lam12n9 ) ( * Nl20x6^01 lam12n10 ) ( - ( - RFN1_x6^0 ) ) ) 0 ) ( = ( + ( * Nl20x7^01 lam12n10 ) ( - ( - RFN1_x7^0 ) ) ) 0 ) ( = ( * ( - 1 ) lam12n3 ) 0 ) ( = ( * ( - 1 ) lam12n4 ) 0 ) ( = ( * ( - 1 ) lam12n5 ) 0 ) ( = ( * ( - 1 ) lam12n6 ) 0 ) ( = ( * ( - 1 ) lam12n7 ) 0 ) ( = ( * ( - 1 ) lam12n8 ) 0 ) ( = ( + ( * ( - 1 ) lam12n2 ) ( * ( - 1 ) lam12n9 ) ) 0 ) ) ( and ( >= lam13n0 0 ) ( >= lam13n1 0 ) ( >= lam13n2 0 ) ( >= lam13n10 0 ) ( > ( + ( * 2 lam13n2 ) ( * Nl20CT1 lam13n10 ) ( - 1 ( + ( - ( + ( + ( + ( + ( + ( + ( + ( + RFN1_CT ( * RFN1_x0^0 0 ) ) ( * RFN1_x1^0 0 ) ) ( * RFN1_x2^0 0 ) ) ( * RFN1_x3^0 0 ) ) ( * RFN1_x4^0 0 ) ) ( * RFN1_x5^0 0 ) ) ( * RFN1_x6^0 ( - 1 ) ) ) ( * RFN1_x7^0 0 ) ) RFN1_CT ) 1 ) ) ) 0 ) ( = ( + ( * 1 lam13n3 ) ( * Nl20x0^01 lam13n10 ) ( - ( - RFN1_x0^0 ) ) ) 0 ) ( = ( + ( * 1 lam13n4 ) ( * Nl20x1^01 lam13n10 ) ( - ( - RFN1_x1^0 ) ) ) 0 ) ( = ( + ( * 1 lam13n5 ) ( * Nl20x2^01 lam13n10 ) ( - ( - RFN1_x2^0 ) ) ) 0 ) ( = ( + ( * 1 lam13n6 ) ( * Nl20x3^01 lam13n10 ) ( - ( - RFN1_x3^0 ) ) ) 0 ) ( = ( + ( * 1 lam13n7 ) ( * Nl20x4^01 lam13n10 ) ( - ( - RFN1_x4^0 ) ) ) 0 ) ( = ( + ( * ( - 1 ) lam13n1 ) ( * 1 lam13n8 ) ( * Nl20x5^01 lam13n10 ) ( - ( - RFN1_x5^0 ) ) ) 0 ) ( = ( + ( * 1 lam13n9 ) ( * Nl20x6^01 lam13n10 ) ( - ( - RFN1_x6^0 ) ) ) 0 ) ( = ( + ( * Nl20x7^01 lam13n10 ) ( - ( - RFN1_x7^0 ) ) ) 0 ) ( = ( + ( * ( - 1 ) lam13n3 ) ( - ( + 0 ( * RFN1_x0^0 1 ) ) ) ) 0 ) ( = ( + ( * ( - 1 ) lam13n4 ) ( - ( + 0 ( * RFN1_x1^0 1 ) ) ) ) 0 ) ( = ( + ( * ( - 1 ) lam13n5 ) ( - ( + 0 ( * RFN1_x2^0 1 ) ) ) ) 0 ) ( = ( + ( * ( - 1 ) lam13n6 ) ( - ( + 0 ( * RFN1_x3^0 1 ) ) ) ) 0 ) ( = ( + ( * ( - 1 ) lam13n7 ) ( - ( + 0 ( * RFN1_x4^0 1 ) ) ) ) 0 ) ( = ( + ( * ( - 1 ) lam13n8 ) ( - ( + 0 ( * RFN1_x5^0 1 ) ) ) ) 0 ) ( = ( + ( * ( - 1 ) lam13n2 ) ( * ( - 1 ) lam13n9 ) ( - ( + 0 ( * RFN1_x6^0 1 ) ) ) ) 0 ) ( = ( - ( + 0 ( * RFN1_x7^0 1 ) ) ) 0 ) ) ) ( and ( >= lam15n0 0 ) ( >= lam15n1 0 ) ( >= lam15n2 0 ) ( >= lam15n10 0 ) ( > ( + ( * 2 lam15n2 ) ( * ( + ( - Nl20CT1 ) 1 ) lam15n10 ) ( - 1 ) ) 0 ) ( = ( + ( * 1 lam15n3 ) ( * ( - Nl20x0^01 ) lam15n10 ) ) 0 ) ( = ( + ( * 1 lam15n4 ) ( * ( - Nl20x1^01 ) lam15n10 ) ) 0 ) ( = ( + ( * 1 lam15n5 ) ( * ( - Nl20x2^01 ) lam15n10 ) ) 0 ) ( = ( + ( * 1 lam15n6 ) ( * ( - Nl20x3^01 ) lam15n10 ) ) 0 ) ( = ( + ( * 1 lam15n7 ) ( * ( - Nl20x4^01 ) lam15n10 ) ) 0 ) ( = ( + ( * ( - 1 ) lam15n1 ) ( * 1 lam15n8 ) ( * ( - Nl20x5^01 ) lam15n10 ) ) 0 ) ( = ( + ( * 1 lam15n9 ) ( * ( - Nl20x6^01 ) lam15n10 ) ) 0 ) ( = ( * ( - Nl20x7^01 ) lam15n10 ) 0 ) ( = ( * ( - 1 ) lam15n3 ) 0 ) ( = ( * ( - 1 ) lam15n4 ) 0 ) ( = ( * ( - 1 ) lam15n5 ) 0 ) ( = ( * ( - 1 ) lam15n6 ) 0 ) ( = ( * ( - 1 ) lam15n7 ) 0 ) ( = ( * ( - 1 ) lam15n8 ) 0 ) ( = ( + ( * ( - 1 ) lam15n2 ) ( * ( - 1 ) lam15n9 ) ) 0 ) ) ))
(check-sat)
(exit)
